c ren 1 -> 1
c ren 2 -> 2
c ren 3 -> 3
c ren 4 -> 4
c ren 5 -> 5
c ren 6 -> 6
c ren 7 -> 7
c ren 8 -> 8
c ren 9 -> 9
c ren 10 -> 10
c ren 11 -> 11
c ren 12 -> 12
c ren 13 -> 13
c ren 14 -> 14
c ren 15 -> 15
c ren 16 -> 16
c ren 17 -> 17
c ren 18 -> 18
c ren 19 -> 19
c ren 20 -> 20
c ren 21 -> 21
c ren 22 -> 22
c ren 23 -> 23
c ren 24 -> 24
c ren 25 -> 25
c ren 26 -> 26
c ren 27 -> 27
c ren 28 -> 28
c ren 29 -> 29
c ren 30 -> 30
c ren 31 -> 31
c ren 32 -> 32
c ren 33 -> 33
c ren 34 -> 34
c ren 35 -> 35
c ren 36 -> 36
c ren 37 -> 37
c ren 38 -> 38
c ren 39 -> 39
c ren 40 -> 40
c ren 41 -> 41
c ren 42 -> 42
c ren 43 -> 43
c ren 44 -> 44
c ren 45 -> 45
c ren 46 -> 46
c ren 47 -> 47
c ren 48 -> 48
c ren 49 -> 49
c ren 50 -> 50
c ren 51 -> 51
c ren 52 -> 52
c ren 53 -> 53
c ren 54 -> 54
c ren 55 -> 55
c ren 56 -> 56
c ren 57 -> 57
c ren 58 -> 58
c ren 59 -> 59
c ren 60 -> 60
c ren 61 -> 61
c ren 62 -> 62
c ren 63 -> 63
c ren 64 -> 64
c ren 65 -> 65
c ren 66 -> 66
c ren 67 -> 67
c ren 68 -> 68
c ren 69 -> 69
c ren 70 -> 70
c ren 71 -> 71
c ren 72 -> 72
c ren 73 -> 73
c ren 74 -> 74
c ren 75 -> 75
c ren 76 -> 76
c ren 77 -> 77
c ren 80 -> 78
c ren 83 -> 79
c ren 89 -> 80
c ren 93 -> 81
c ren 96 -> 82
c ren 98 -> 83
c ren 107 -> 84
c ren 110 -> 85
c ren 113 -> 86
c ren 117 -> 87
c ren 119 -> 88
c ren 128 -> 89
c ren 129 -> 90
c ren 137 -> 91
c ren 140 -> 92
c ren 143 -> 93
c ren 149 -> 94
c ren 151 -> 95
c ren 167 -> 96
c ren 179 -> 97
c ren 188 -> 98
c ren 192 -> 99
c ren 201 -> 100
c ren 206 -> 101
c ren 210 -> 102
c ren 212 -> 103
c ren 213 -> 104
c ren 214 -> 105
c ren 215 -> 106
c ren 216 -> 107
c ren 217 -> 108
c ren 218 -> 109
c ren 219 -> 110
c ren 220 -> 111
c ren 221 -> 112
c ren 222 -> 113
c ren 223 -> 114
c ren 224 -> 115
c ren 225 -> 116
c ren 226 -> 117
c ren 227 -> 118
c ren 228 -> 119
c ren 248 -> 120
c ren 258 -> 121
c ren 316 -> 122
c ren 317 -> 123
c ren 318 -> 124
c ren 319 -> 125
c ren 320 -> 126
c ren 321 -> 127
c ren 322 -> 128
c ren 323 -> 129
c ren 324 -> 130
c ren 325 -> 131
c ren 326 -> 132
c ren 327 -> 133
c ren 328 -> 134
c ren 329 -> 135
c ren 330 -> 136
c ren 331 -> 137
c ren 332 -> 138
c ren 333 -> 139
c ren 334 -> 140
c ren 335 -> 141
c ren 336 -> 142
c ren 337 -> 143
c ren 338 -> 144
c ren 339 -> 145
c ren 340 -> 146
c ren 341 -> 147
c ren 342 -> 148
c ren 343 -> 149
c ren 344 -> 150
c ren 345 -> 151
c ren 346 -> 152
c ren 347 -> 153
c ren 348 -> 154
c ren 349 -> 155
c ren 350 -> 156
c ren 351 -> 157
c ren 352 -> 158
c ren 353 -> 159
c ren 354 -> 160
c ren 355 -> 161
c ren 356 -> 162
c ren 357 -> 163
c ren 358 -> 164
p cnf 164 362
a 1 2 3 4 5 6 7 8 9 10 11 12 13 14 15 16 17 18 19 20 21 22 23 24 25 26 27 28 29 30 31 32 33 34 35 36 37 38 39 40 41 42 43 44 45 46 47 48 49 50 51 52 53 54 55 56 57 58 59 60 61 62 63 64 65 66 67 68 69 70 71 72 73 74 75 76 0
d 103 37 38 0
d 104 45 46 0
d 105 41 42 0
d 106 51 52 0
d 107 53 54 55 56 57 58 59 60 0
d 108 53 54 55 56 57 58 59 60 0
d 109 39 40 0
d 110 43 44 0
d 111 35 36 0
d 112 33 34 0
d 113 69 70 71 72 73 74 75 76 0
d 114 69 70 71 72 73 74 75 76 0
d 115 49 50 0
d 116 47 48 0
d 117 61 62 63 64 65 66 67 68 0
d 118 61 62 63 64 65 66 67 68 0
d 119 61 62 63 64 65 66 67 68 0
e 77 78 79 80 81 82 83 84 85 86 87 88 89 90 91 92 93 94 95 96 97 98 99 100 101 102 120 121 122 123 124 125 126 127 128 129 130 131 132 133 134 135 136 137 138 139 140 141 142 143 144 145 146 147 148 149 150 151 152 153 154 155 156 157 158 159 160 161 162 163 164 0
-11 -77 0
27 -77 0
11 -27 77 0
-11 27 -80 0
-77 83 89 -100 -101 0
-10 -78 0
26 -78 0
-26 80 -81 82 -83 0
-78 -102 0
-10 26 79 83 0
-9 -79 0
25 -79 0
-9 25 -81 0
-79 -82 0
-74 -78 -81 -116 -164 0
-12 28 -102 0
11 80 0
-27 80 0
10 -28 -81 82 -83 0
-10 26 83 89 -100 -101 0
9 81 0
-25 81 0
10 12 -81 82 -83 0
-70 -79 -160 0
-70 -78 -81 -116 -160 0
-79 89 -100 -101 0
-80 -82 0
10 28 70 78 79 115 -160 0
-10 26 69 -81 -116 -159 0
80 83 89 -100 -101 0
-10 26 -70 -81 -116 -160 0
-77 -102 0
81 83 0
10 -77 -81 -83 0
-82 83 0
10 78 79 80 -81 82 0
-4 -12 -20 77 78 79 -80 84 85 86 90 91 92 93 -94 -95 -98 101 0
12 -28 -70 -81 82 -116 -160 0
10 -12 -28 70 78 79 115 -160 0
-28 -74 -81 82 -116 -164 0
69 -78 -81 -116 -159 0
-12 28 77 78 79 -80 83 0
-79 -102 0
80 -102 0
12 -28 -102 0
-79 -81 -83 0
-83 -102 0
-93 100 0
-7 -84 0
23 -84 0
7 -23 84 0
-7 23 -88 0
-84 89 -100 -101 0
-10 26 -82 0
-6 -85 0
22 -85 0
6 -22 85 0
-22 -66 -156 0
-85 -102 0
-5 -86 0
21 -86 0
4 20 -22 28 77 78 79 -80 83 84 85 86 89 90 91 92 93 -94 98 -99 -100 102 0
-86 -100 -101 0
8 87 0
-24 87 0
7 88 0
-23 88 0
4 6 20 28 77 78 79 -80 83 84 85 86 89 90 91 92 93 -94 98 -99 -100 102 0
-5 21 89 0
5 6 -84 -88 -89 0
6 -21 -87 -88 -89 0
-85 89 -100 -101 0
-5 21 68 -158 0
5 63 86 -153 0
-84 -102 0
88 89 -100 -101 0
-5 21 -63 -153 0
-6 22 66 -156 0
-8 -90 0
24 -90 0
-8 24 -87 0
89 -90 -100 -101 0
-4 6 -20 28 77 78 79 -80 83 84 85 86 -87 89 90 91 92 93 -94 98 -99 -100 102 0
-6 22 89 -100 -101 0
68 -90 -158 0
4 20 28 77 78 79 -80 84 85 86 90 91 92 93 -94 -98 101 0
-3 -91 0
19 -91 0
3 -19 91 0
-3 19 -94 0
4 -12 20 77 78 79 -80 83 84 85 86 89 90 91 92 93 -94 98 -99 -100 102 0
-2 -92 0
18 -92 0
2 -18 92 0
-2 18 -95 0
-17 -91 -102 0
-21 63 86 -153 0
-4 20 56 -146 0
-1 -93 0
17 -93 0
1 -17 93 0
-17 -59 -149 0
1 4 -94 -95 100 0
4 -56 -146 0
-4 20 -100 -101 0
3 94 0
-19 94 0
2 95 0
-18 95 0
1 -4 20 91 92 93 -100 0
-1 17 -100 0
-91 -95 -100 -101 0
94 -100 -101 0
1 -92 -95 100 0
1 -20 -94 -95 100 0
-90 -102 0
94 -102 0
-86 -89 0
1 -59 -149 0
-17 -92 100 0
-20 -56 -146 0
-92 -102 0
4 -12 20 77 78 79 -80 84 85 86 90 91 92 93 -94 -98 101 0
-4 -17 20 91 92 93 -95 -100 0
6 -66 -156 0
-21 -68 86 -87 90 104 110 -158 0
-1 17 59 -149 0
-92 -100 -101 0
-4 -20 -83 84 85 86 90 91 92 93 -94 -95 101 0
-93 -101 0
4 -20 -100 -101 0
1 92 93 94 -100 0
-4 -20 -89 91 92 93 101 0
-15 -96 0
31 -96 0
-13 14 16 -29 30 32 96 -97 99 0
-13 -14 -16 -29 32 96 120 0
-13 -14 97 98 0
13 14 -30 -98 0
-13 -14 -16 32 96 98 0
13 -14 -16 29 32 96 120 0
14 -29 -96 -98 0
16 -30 -97 -106 -120 0
14 -96 -106 -120 0
15 97 0
-31 97 0
14 -32 -97 -106 -120 0
-14 29 30 98 0
-29 -30 -32 -97 -98 0
-13 29 98 0
13 -14 29 97 120 0
-13 -16 -29 30 32 96 120 0
-13 -29 30 97 120 0
-30 -32 -97 -106 -120 0
-14 29 97 98 0
-26 28 70 78 79 115 -160 0
13 14 16 -97 -98 0
68 -110 -158 0
-12 -26 -28 70 78 79 115 -160 0
-13 -14 -29 30 120 0
-13 29 -106 -120 0
13 14 16 29 30 32 96 -97 99 0
13 14 -96 -98 0
-13 30 97 98 0
13 -29 -106 -120 0
29 30 97 98 0
16 -29 -30 -97 -98 0
14 -29 -30 -98 0
13 -29 -98 0
-73 120 -163 0
-98 -102 0
13 -14 29 30 120 0
-13 -14 30 98 0
100 -102 0
83 89 98 -100 -101 0
4 -17 -94 -95 100 0
1 -91 -94 -95 100 0
12 -28 83 89 -100 -101 0
100 101 0
88 -102 0
93 95 -100 0
-89 -102 0
68 -86 -158 0
13 -30 -32 -97 -98 0
4 -20 -95 -102 0
15 -31 96 0
-15 31 -97 0
13 -14 -16 29 -30 -32 96 -97 99 0
-13 -16 30 32 96 98 0
13 16 -30 -97 -98 0
13 -16 29 30 32 96 120 0
-96 -99 0
14 16 -97 -106 -120 0
14 -30 -106 -120 0
13 -30 -96 -98 0
-26 -28 -81 82 -83 0
97 -99 0
-13 -14 16 -29 -30 32 96 -97 99 0
-13 14 -16 -29 30 -32 96 -97 99 0
-14 -16 29 32 96 98 0
106 120 0
-13 -14 -29 97 120 0
14 16 -29 -97 -98 0
13 14 -32 -97 -98 0
13 14 -16 29 30 -32 96 -97 99 0
13 29 30 97 120 0
-28 69 -81 82 -116 -159 0
-16 29 30 32 96 98 0
14 -29 -32 -97 -98 0
68 87 -158 0
73 -120 -163 0
108 -121 0
-107 -121 0
-102 -107 108 -122 0
-102 -121 -122 0
72 -108 121 -162 0
-102 -120 -122 0
5 -21 86 0
85 86 88 89 0
8 -24 90 0
-4 -20 -22 28 77 78 79 -80 83 84 85 86 -88 89 90 91 92 93 -94 98 -99 -100 102 0
87 89 -100 -101 0
-86 -102 0
10 -26 78 0
-4 -12 -20 77 78 79 -80 83 84 85 86 89 90 91 92 93 -94 98 -99 -100 102 0
9 -25 79 0
10 -12 28 -69 78 79 115 -159 0
-74 -79 -164 0
70 79 116 -160 0
69 -81 82 -115 -116 -159 0
-10 26 -74 -81 -116 -164 0
-78 83 89 -100 -101 0
69 -79 -159 0
-4 -20 28 77 78 79 -80 84 85 86 90 91 92 93 -94 -98 101 0
-74 -81 82 -115 -116 -164 0
-17 92 93 94 -100 0
-69 79 116 -159 0
-78 -82 0
10 80 -81 82 -83 0
12 -74 -81 82 -116 -164 0
-78 -81 -83 0
-12 28 83 89 -100 -101 0
70 81 -160 0
74 79 116 -164 0
-75 76 118 -121 122 123 124 125 126 127 128 129 130 131 132 133 134 135 136 137 138 139 140 141 142 143 144 145 146 147 148 149 150 151 152 153 154 155 156 157 158 159 160 161 162 163 164 0
75 -76 -118 119 121 122 123 124 125 126 127 128 129 130 131 132 133 134 135 136 137 138 139 140 141 142 143 144 145 146 147 148 149 150 151 152 153 154 155 156 157 158 159 160 161 162 163 164 0
107 -108 121 0
72 107 121 -162 0
-99 102 -108 114 117 120 121 -122 0
101 -113 -122 0
-101 113 -122 0
-102 -117 -122 0
-72 -121 -162 0
-102 -114 -122 0
-72 -107 108 -162 0
-1 -33 -123 0
1 33 -123 0
-17 -34 -124 0
17 34 -124 0
-2 -35 -125 0
5 -22 -84 -89 0
5 -22 -87 -88 -89 0
2 35 -125 0
-18 -36 -126 0
13 -14 16 29 -30 32 96 -97 99 0
18 36 -126 0
-3 -37 -127 0
3 37 -127 0
-19 -38 -128 0
-12 -26 28 -69 78 79 115 -159 0
19 38 -128 0
-4 -39 -129 0
4 39 -129 0
-20 -40 -130 0
20 40 -130 0
-5 -41 -131 0
-12 -26 28 74 78 79 115 -164 0
5 41 -131 0
-21 -42 -132 0
21 42 -132 0
-6 -43 -133 0
5 -85 -89 0
6 43 -133 0
-22 -44 -134 0
-17 -91 -95 100 0
22 44 -134 0
-7 -45 -135 0
-26 -77 -81 -83 0
7 45 -135 0
-23 -46 -136 0
23 46 -136 0
-10 -47 -137 0
10 47 -137 0
-26 -48 -138 0
26 48 -138 0
-11 -49 -139 0
11 49 -139 0
-27 -50 -140 0
27 50 -140 0
-13 -51 -141 0
13 51 -141 0
-29 -52 -142 0
29 52 -142 0
-53 -103 -143 0
-17 -20 -94 -95 100 0
53 103 -143 0
-54 -111 -144 0
12 -26 -81 82 -83 0
54 111 -144 0
-55 -112 -145 0
55 112 -145 0
4 20 -83 84 85 86 90 91 92 93 -94 -95 101 0
-26 78 79 80 -81 82 0
1 -91 -102 0
-57 -94 -147 0
-21 -22 -84 -89 0
57 94 -147 0
-58 -95 -148 0
58 95 -148 0
-93 -102 0
-60 -109 -150 0
60 109 -150 0
-61 -104 -151 0
-21 -22 -87 -88 -89 0
61 104 -151 0
-62 -110 -152 0
-21 -85 -89 0
62 110 -152 0
6 -21 -84 -89 0
5 -68 86 -87 90 104 110 -158 0
84 85 86 87 89 0
-64 -87 -154 0
-30 -96 -106 -120 0
-13 -14 -16 -29 -30 -32 96 -97 99 0
64 87 -154 0
-65 -88 -155 0
65 88 -155 0
5 6 -87 -88 -89 0
-6 22 86 89 0
-67 -105 -157 0
4 20 -89 91 92 93 101 0
67 105 -157 0
-63 -86 -153 0
87 -102 0
68 -104 -158 0
74 81 -164 0
-69 -82 -159 0
-69 81 -159 0
-29 -30 -96 -98 0
-71 -117 -161 0
71 117 -161 0
-99 102 107 114 117 120 121 -122 0
-70 -81 82 -115 -116 -160 0
70 -82 -160 0
74 -82 -164 0
81 -82 0
-75 76 -119 -121 122 123 124 125 126 127 128 129 130 131 132 133 134 135 136 137 138 139 140 141 142 143 144 145 146 147 148 149 150 151 152 153 154 155 156 157 158 159 160 161 162 163 164 0
75 76 -118 119 -121 122 123 124 125 126 127 128 129 130 131 132 133 134 135 136 137 138 139 140 141 142 143 144 145 146 147 148 149 150 151 152 153 154 155 156 157 158 159 160 161 162 163 164 0
-75 -76 -119 121 122 123 124 125 126 127 128 129 130 131 132 133 134 135 136 137 138 139 140 141 142 143 144 145 146 147 148 149 150 151 152 153 154 155 156 157 158 159 160 161 162 163 164 0
-75 -76 118 121 122 123 124 125 126 127 128 129 130 131 132 133 134 135 136 137 138 139 140 141 142 143 144 145 146 147 148 149 150 151 152 153 154 155 156 157 158 159 160 161 162 163 164 0
12 69 -81 82 -116 -159 0
10 -12 28 74 78 79 115 -164 0
